WARNING: for repeatability, setting FPU to use double precision
============================[ Problem Statistics ]=============================
|                                                                             |
|  Number of variables:            50                                         |
|  Number of clauses:             218                                         |
|  Parse time:                   0.00 s                                       |
|                                                                             |
============================[ Search Statistics ]==============================
| Conflicts |          ORIGINAL         |          LEARNT          | Progress |
|           |    Vars  Clauses Literals |    Limit  Clauses Lit/Cl |          |
===============================================================================
===============================================================================
restarts              : 1
conflicts             : 16             (11511 /sec)
decisions             : 32             (0.00 % random) (23022 /sec)
propagations          : 271            (194964 /sec)
conflict literals     : 95             (6.86 % deleted)
Memory used           : 20.00 MB
CPU time              : 0.00139 s

SATISFIABLE
